outputs/case_339.model.txt
other_transaction_amount_to_related_corporate = 0
loan_amount_to_related_corporate = 0
risk_to_insured_rights = False
capital_level = 2
other_transaction_amount_to_related_person = 0
foreign_investment_total = 4
transaction_limit = 0
business_year_end = 1
financial_or_business_condition_deteriorated = False
board_approval_ratio = 3/4
other_transaction_amount_to_same_person = 0
foreign_investment_limit = 4
loan_amount_to_related_person = 0
loan_limit = 0
loan_amount_to_same_person = 0
board_attendance_ratio = 6666667/10000000
unable_to_pay_debts_or_fulfill_contracts = False
internal_control_executed = True
internal_control_established = True
internal_handling_established = True
internal_handling_executed = True
foreign_investment_compliance = True
violation_of_loan_and_transaction_limits = False
internal_control_and_audit_ok = True
reserve_calculation_and_recording = True
internal_handling_ok = True
loan_other_transaction_limit_compliance = True
reserve_calculated = True
article_143_complied = True
article_143_5_and_143_6_measures_complied = True
business_scope_rules_complied = True
supervision_measures = False
loan_and_transaction_limits_complied = True
violation_of_article_143_5_and_143_6_measures = False
violation_of_internal_control_or_handling = False
person = False
self = False
degree_of_kinship = 0
spouse = False
person_responsible_for_business = False
related_person = True
shares_held_during_underwriting_period = False
violation_of_article_143 = False
shares_held_due_to_collateral_under_4_years = False
internal_control_and_handling_compliance = True
shares_held_due_to_inheritance_under_2_years = False
violation_of_fund_usage_rules = False
loan_and_other_transaction_limit = 1
loan_without_board_approval = False
reserve_rules_complied = True
loan_sufficient_collateral = True
loan_without_sufficient_collateral = False
reserve_recorded_in_special_ledger = True
fund_usage_rules_complied = True
legal_person_1 = False
legal_person_2 = False
natural_person_1 = False
natural_person_2 = False
same_person = True
exclusion_of_certain_shares_in_calculation = True
company_law_369_9_applied = False
company_law_369_11_applied = False
company_law_369_2_applied = False
company_law_369_3_applied = False
company_law_369_1_applied = False
related_corporate = False
capital_level_severely_insufficient = False
penalty = False
violation_of_reserve_rules = False
violation_of_business_scope_rules = False
foreign_investment_limit_compliance = True